20
1 0 1
2 0 4
2 1 3
3 0 3
4 1 1
4 2 4
4 3 1
5 0 2
5 1 2
5 3 2
5 4 1
6 0 4
6 2 2
6 3 5
6 4 3
6 5 5
7 1 6
7 2 6
7 3 5
7 5 1
8 0 6
8 1 1
8 4 5
8 6 2
9 1 3
9 3 1
9 5 6
9 7 6
9 8 5
10 1 5
10 5 3
10 8 5
11 1 3
11 2 1
11 3 3
11 4 3
11 6 4
11 8 5
11 10 6
12 0 1
12 2 2
12 10 3
12 11 1
13 3 4
13 4 5
13 5 6
13 6 2
13 12 5
14 4 6
14 5 1
14 7 5
14 8 3
14 9 6
14 10 6
14 12 6
14 13 3
15 1 6
15 2 4
15 3 2
15 6 4
15 7 6
15 8 2
15 11 1
15 14 6
16 1 6
16 2 4
16 4 4
16 8 2
16 12 1
16 13 5
16 14 1
17 1 6
17 2 4
17 5 1
17 9 3
17 10 2
17 11 5
18 0 6
18 1 4
18 2 6
18 4 6
18 6 1
18 9 6
18 10 4
18 11 5
18 12 4
18 13 1
18 16 5
18 17 6
19 4 2
19 5 4
19 7 5
19 8 1
19 10 1
19 14 6
19 16 2
19 17 1
19 18 3
